BAYES
225
2 2 2 2 2 2 2 2 2 2 2 2 2 2 2 2 2 2 2 2 2 2 2 2 2 2 2 2 2 2 2 2 2 2 2 2 2 2 2 2 2 2 2 2 2 2 2 2 2 2 2 2 2 2 2 2 2 2 2 2 2 2 2 2 2 2 2 2 2 2 2 2 2 2 2 2 2 2 2 2 2 2 2 2 2 2 2 2 2 2 2 2 2 2 2 2 2 2 2 2 2 2 2 2 2 2 2 2 2 2 2 2 2 2 2 2 2 2 2 2 2 2 2 2 2 2 2 2 2 2 2 2 2 2 2 2 2 2 2 2 2 2 2 2 2 2 2 2 2 2 2 2 2 2 2 2 2 2 2 2 2 2 2 2 2 2 2 2 2 2 2 2 2 2 2 2 2 2 2 2 2 2 2 2 2 2 2 2 2 2 2 2 2 2 2 2 2 2 2 2 2 2 2 2 2 2 2 2 2 2 2 2 2 2 2 2 2 2 2 2 2 2 2 2 2
225
1 0
2 0 1
2 1 2
2 2 3
2 3 4
2 4 5
2 5 6
2 6 7
2 7 8
2 8 9
2 9 10
2 10 11
2 11 12
2 12 13
2 13 14
2 0 15
3 1 15 16
3 2 16 17
3 3 17 18
3 4 18 19
3 5 19 20
3 6 20 21
3 7 21 22
3 8 22 23
3 9 23 24
3 10 24 25
3 11 25 26
3 12 26 27
3 13 27 28
3 14 28 29
2 15 30
3 16 30 31
3 17 31 32
3 18 32 33
3 19 33 34
3 20 34 35
3 21 35 36
3 22 36 37
3 23 37 38
3 24 38 39
3 25 39 40
3 26 40 41
3 27 41 42
3 28 42 43
3 29 43 44
2 30 45
3 31 45 46
3 32 46 47
3 33 47 48
3 34 48 49
3 35 49 50
3 36 50 51
3 37 51 52
3 38 52 53
3 39 53 54
3 40 54 55
3 41 55 56
3 42 56 57
3 43 57 58
3 44 58 59
2 45 60
3 46 60 61
3 47 61 62
3 48 62 63
3 49 63 64
3 50 64 65
3 51 65 66
3 52 66 67
3 53 67 68
3 54 68 69
3 55 69 70
3 56 70 71
3 57 71 72
3 58 72 73
3 59 73 74
2 60 75
3 61 75 76
3 62 76 77
3 63 77 78
3 64 78 79
3 65 79 80
3 66 80 81
3 67 81 82
3 68 82 83
3 69 83 84
3 70 84 85
3 71 85 86
3 72 86 87
3 73 87 88
3 74 88 89
2 75 90
3 76 90 91
3 77 91 92
3 78 92 93
3 79 93 94
3 80 94 95
3 81 95 96
3 82 96 97
3 83 97 98
3 84 98 99
3 85 99 100
3 86 100 101
3 87 101 102
3 88 102 103
3 89 103 104
2 90 105
3 91 105 106
3 92 106 107
3 93 107 108
3 94 108 109
3 95 109 110
3 96 110 111
3 97 111 112
3 98 112 113
3 99 113 114
3 100 114 115
3 101 115 116
3 102 116 117
3 103 117 118
3 104 118 119
2 105 120
3 106 120 121
3 107 121 122
3 108 122 123
3 109 123 124
3 110 124 125
3 111 125 126
3 112 126 127
3 113 127 128
3 114 128 129
3 115 129 130
3 116 130 131
3 117 131 132
3 118 132 133
3 119 133 134
2 120 135
3 121 135 136
3 122 136 137
3 123 137 138
3 124 138 139
3 125 139 140
3 126 140 141
3 127 141 142
3 128 142 143
3 129 143 144
3 130 144 145
3 131 145 146
3 132 146 147
3 133 147 148
3 134 148 149
2 135 150
3 136 150 151
3 137 151 152
3 138 152 153
3 139 153 154
3 140 154 155
3 141 155 156
3 142 156 157
3 143 157 158
3 144 158 159
3 145 159 160
3 146 160 161
3 147 161 162
3 148 162 163
3 149 163 164
2 150 165
3 151 165 166
3 152 166 167
3 153 167 168
3 154 168 169
3 155 169 170
3 156 170 171
3 157 171 172
3 158 172 173
3 159 173 174
3 160 174 175
3 161 175 176
3 162 176 177
3 163 177 178
3 164 178 179
2 165 180
3 166 180 181
3 167 181 182
3 168 182 183
3 169 183 184
3 170 184 185
3 171 185 186
3 172 186 187
3 173 187 188
3 174 188 189
3 175 189 190
3 176 190 191
3 177 191 192
3 178 192 193
3 179 193 194
2 180 195
3 181 195 196
3 182 196 197
3 183 197 198
3 184 198 199
3 185 199 200
3 186 200 201
3 187 201 202
3 188 202 203
3 189 203 204
3 190 204 205
3 191 205 206
3 192 206 207
3 193 207 208
3 194 208 209
2 195 210
3 196 210 211
3 197 211 212
3 198 212 213
3 199 213 214
3 200 214 215
3 201 215 216
3 202 216 217
3 203 217 218
3 204 218 219
3 205 219 220
3 206 220 221
3 207 221 222
3 208 222 223
3 209 223 224

2
0.342315 0.657685
4
1.0 0.0 0.0 1.0
4
0.0 1.0 1.0 0.0
4
1.0 0.0 0.0 1.0
4
0.0 1.0 1.0 0.0
4
1.0 0.0 0.0 1.0
4
0.0 1.0 1.0 0.0
4
1.0 0.0 0.0 1.0
4
1.0 0.0 0.0 1.0
4
1.0 0.0 0.0 1.0
4
0.489238 0.510762 0.982235 0.0177652
4
0.0 1.0 1.0 0.0
4
1.0 0.0 0.0 1.0
4
1.0 0.0 0.0 1.0
4
1.0 0.0 0.0 1.0
4
0.0 1.0 1.0 0.0
8
0.0 1.0 1.0 0.0 0.0 1.0 1.0 0.0
8
1.0 0.0 0.0 1.0 0.0 1.0 0.0 1.0
8
1.0 0.0 1.0 0.0 0.0 1.0 0.0 1.0
8
0.468353 0.531647 0.900832 0.0991684 0.461637 0.538363 0.450588 0.549412
8
1.0 0.0 0.0 1.0 0.0 1.0 0.0 1.0
8
1.0 0.0 0.0 1.0 1.0 0.0 1.0 0.0
8
0.0 1.0 1.0 0.0 1.0 0.0 0.0 1.0
8
1.0 0.0 0.0 1.0 1.0 0.0 1.0 0.0
8
0.0 1.0 0.0 1.0 1.0 0.0 1.0 0.0
8
1.0 0.0 1.0 0.0 1.0 0.0 0.0 1.0
8
1.0 0.0 0.0 1.0 1.0 0.0 1.0 0.0
8
0.0789424 0.921058 0.155169 0.844831 0.525793 0.474207 0.799891 0.200109
8
0.0 1.0 0.0 1.0 1.0 0.0 0.0 1.0
8
0.736313 0.263687 0.453189 0.546811 0.14867 0.85133 0.329084 0.670916
4
0.0 1.0 1.0 0.0
8
1.0 0.0 0.0 1.0 0.0 1.0 1.0 0.0
8
0.0 1.0 0.0 1.0 1.0 0.0 0.0 1.0
8
1.0 0.0 1.0 0.0 1.0 0.0 0.0 1.0
8
1.0 0.0 0.0 1.0 1.0 0.0 1.0 0.0
8
0.0 1.0 0.0 1.0 1.0 0.0 0.0 1.0
8
0.0 1.0 1.0 0.0 1.0 0.0 1.0 0.0
8
1.0 0.0 0.0 1.0 0.0 1.0 1.0 0.0
8
0.0 1.0 1.0 0.0 1.0 0.0 1.0 0.0
8
0.0 1.0 1.0 0.0 0.0 1.0 1.0 0.0
8
0.0 1.0 1.0 0.0 1.0 0.0 1.0 0.0
8
1.0 0.0 1.0 0.0 1.0 0.0 0.0 1.0
8
0.0 1.0 1.0 0.0 1.0 0.0 0.0 1.0
8
1.0 0.0 0.0 1.0 0.0 1.0 1.0 0.0
8
1.0 0.0 0.0 1.0 1.0 0.0 1.0 0.0
4
1.0 0.0 0.0 1.0
8
1.0 0.0 0.0 1.0 0.0 1.0 1.0 0.0
8
1.0 0.0 0.0 1.0 0.0 1.0 0.0 1.0
8
1.0 0.0 1.0 0.0 1.0 0.0 0.0 1.0
8
1.0 0.0 1.0 0.0 0.0 1.0 1.0 0.0
8
0.93468 0.0653195 0.827476 0.172524 0.401081 0.598919 0.726464 0.273536
8
0.0 1.0 0.0 1.0 0.0 1.0 1.0 0.0
8
1.0 0.0 0.0 1.0 0.0 1.0 0.0 1.0
8
1.0 0.0 0.0 1.0 0.0 1.0 0.0 1.0
8
1.0 0.0 0.0 1.0 1.0 0.0 1.0 0.0
8
1.0 0.0 0.0 1.0 0.0 1.0 0.0 1.0
8
1.0 0.0 0.0 1.0 0.0 1.0 0.0 1.0
8
0.0 1.0 1.0 0.0 0.0 1.0 1.0 0.0
8
0.647856 0.352144 0.00342253 0.996577 0.241344 0.758656 0.6871 0.3129
8
0.0 1.0 1.0 0.0 1.0 0.0 0.0 1.0
4
0.0 1.0 1.0 0.0
8
0.0 1.0 0.0 1.0 1.0 0.0 1.0 0.0
8
1.0 0.0 1.0 0.0 1.0 0.0 0.0 1.0
8
0.360945 0.639055 0.648776 0.351224 0.351754 0.648246 0.208956 0.791044
8
0.0 1.0 0.0 1.0 1.0 0.0 0.0 1.0
8
1.0 0.0 1.0 0.0 0.0 1.0 0.0 1.0
8
0.646007 0.353993 0.655678 0.344322 0.892046 0.107954 0.907495 0.0925048
8
0.0 1.0 1.0 0.0 0.0 1.0 1.0 0.0
8
0.677909 0.322091 0.871013 0.128987 0.00805923 0.991941 0.6695 0.3305
8
1.0 0.0 1.0 0.0 0.0 1.0 0.0 1.0
8
0.0 1.0 0.0 1.0 1.0 0.0 0.0 1.0
8
1.0 0.0 1.0 0.0 0.0 1.0 1.0 0.0
8
1.0 0.0 1.0 0.0 1.0 0.0 0.0 1.0
8
1.0 0.0 0.0 1.0 0.0 1.0 0.0 1.0
8
0.194929 0.805071 0.0206968 0.979303 0.91746 0.0825402 0.864429 0.135571
4
1.0 0.0 0.0 1.0
8
1.0 0.0 1.0 0.0 1.0 0.0 0.0 1.0
8
0.0 1.0 0.0 1.0 1.0 0.0 1.0 0.0
8
1.0 0.0 0.0 1.0 0.0 1.0 0.0 1.0
8
0.0 1.0 0.0 1.0 1.0 0.0 0.0 1.0
8
1.0 0.0 0.0 1.0 0.0 1.0 0.0 1.0
8
0.00358276 0.996417 0.629292 0.370708 0.817724 0.182276 0.33338 0.66662
8
1.0 0.0 1.0 0.0 0.0 1.0 0.0 1.0
8
0.0 1.0 0.0 1.0 1.0 0.0 1.0 0.0
8
0.0 1.0 0.0 1.0 1.0 0.0 1.0 0.0
8
1.0 0.0 1.0 0.0 0.0 1.0 0.0 1.0
8
0.0 1.0 1.0 0.0 1.0 0.0 1.0 0.0
8
0.0 1.0 0.0 1.0 1.0 0.0 1.0 0.0
8
1.0 0.0 0.0 1.0 1.0 0.0 1.0 0.0
8
1.0 0.0 1.0 0.0 0.0 1.0 0.0 1.0
4
1.0 0.0 0.0 1.0
8
0.0 1.0 1.0 0.0 0.0 1.0 0.0 1.0
8
0.0 1.0 1.0 0.0 0.0 1.0 1.0 0.0
8
1.0 0.0 0.0 1.0 0.0 1.0 1.0 0.0
8
1.0 0.0 0.0 1.0 0.0 1.0 1.0 0.0
8
1.0 0.0 0.0 1.0 0.0 1.0 0.0 1.0
8
0.0 1.0 1.0 0.0 0.0 1.0 1.0 0.0
8
1.0 0.0 0.0 1.0 0.0 1.0 1.0 0.0
8
1.0 0.0 0.0 1.0 1.0 0.0 1.0 0.0
8
0.0 1.0 0.0 1.0 1.0 0.0 0.0 1.0
8
1.0 0.0 0.0 1.0 0.0 1.0 1.0 0.0
8
1.0 0.0 0.0 1.0 1.0 0.0 1.0 0.0
8
1.0 0.0 0.0 1.0 0.0 1.0 0.0 1.0
8
0.0 1.0 1.0 0.0 1.0 0.0 0.0 1.0
8
0.893361 0.106639 0.125427 0.874573 0.880599 0.119401 0.437733 0.562267
4
1.0 0.0 0.0 1.0
8
0.0 1.0 1.0 0.0 0.0 1.0 0.0 1.0
8
1.0 0.0 0.0 1.0 1.0 0.0 0.0 1.0
8
0.268352 0.731648 0.956063 0.0439367 0.123942 0.876058 0.656812 0.343188
8
0.0 1.0 0.0 1.0 1.0 0.0 0.0 1.0
8
0.0 1.0 0.0 1.0 0.0 1.0 1.0 0.0
8
0.0 1.0 1.0 0.0 1.0 0.0 0.0 1.0
8
1.0 0.0 0.0 1.0 0.0 1.0 0.0 1.0
8
0.0 1.0 1.0 0.0 0.0 1.0 0.0 1.0
8
1.0 0.0 1.0 0.0 0.0 1.0 1.0 0.0
8
0.0 1.0 1.0 0.0 0.0 1.0 1.0 0.0
8
1.0 0.0 0.0 1.0 1.0 0.0 1.0 0.0
8
0.0 1.0 0.0 1.0 1.0 0.0 0.0 1.0
8
1.0 0.0 0.0 1.0 0.0 1.0 1.0 0.0
8
0.0 1.0 0.0 1.0 1.0 0.0 0.0 1.0
4
0.0 1.0 1.0 0.0
8
1.0 0.0 0.0 1.0 1.0 0.0 1.0 0.0
8
1.0 0.0 0.0 1.0 1.0 0.0 0.0 1.0
8
0.0 1.0 0.0 1.0 1.0 0.0 1.0 0.0
8
1.0 0.0 0.0 1.0 0.0 1.0 1.0 0.0
8
0.0 1.0 1.0 0.0 0.0 1.0 1.0 0.0
8
0.453271 0.546729 0.751331 0.248669 0.055478 0.944522 0.53381 0.46619
8
0.0 1.0 1.0 0.0 0.0 1.0 1.0 0.0
8
0.0 1.0 0.0 1.0 1.0 0.0 1.0 0.0
8
1.0 0.0 1.0 0.0 0.0 1.0 0.0 1.0
8
0.736235 0.263765 0.843537 0.156463 0.627554 0.372446 0.167084 0.832916
8
0.0 1.0 1.0 0.0 0.0 1.0 1.0 0.0
8
0.0 1.0 1.0 0.0 0.0 1.0 1.0 0.0
8
0.0 1.0 1.0 0.0 0.0 1.0 1.0 0.0
8
0.0 1.0 1.0 0.0 0.0 1.0 1.0 0.0
4
0.213039 0.786961 0.761157 0.238843
8
1.0 0.0 0.0 1.0 0.0 1.0 1.0 0.0
8
1.0 0.0 0.0 1.0 1.0 0.0 1.0 0.0
8
1.0 0.0 0.0 1.0 1.0 0.0 0.0 1.0
8
0.0 1.0 1.0 0.0 1.0 0.0 1.0 0.0
8
0.0 1.0 0.0 1.0 1.0 0.0 1.0 0.0
8
1.0 0.0 1.0 0.0 0.0 1.0 1.0 0.0
8
1.0 0.0 0.0 1.0 1.0 0.0 1.0 0.0
8
0.0 1.0 1.0 0.0 1.0 0.0 1.0 0.0
8
0.0 1.0 0.0 1.0 1.0 0.0 0.0 1.0
8
0.834613 0.165387 0.0296238 0.970376 0.233362 0.766638 0.0607944 0.939206
8
0.0 1.0 0.0 1.0 1.0 0.0 1.0 0.0
8
0.626249 0.373751 0.575863 0.424137 0.883079 0.116921 0.854994 0.145006
8
0.0 1.0 1.0 0.0 0.0 1.0 1.0 0.0
8
0.0 1.0 1.0 0.0 1.0 0.0 1.0 0.0
4
1.0 0.0 0.0 1.0
8
1.0 0.0 0.0 1.0 0.0 1.0 0.0 1.0
8
1.0 0.0 0.0 1.0 1.0 0.0 1.0 0.0
8
0.0 1.0 1.0 0.0 1.0 0.0 0.0 1.0
8
0.0 1.0 0.0 1.0 1.0 0.0 0.0 1.0
8
0.263457 0.736543 0.112548 0.887452 0.109616 0.890384 0.777609 0.222391
8
0.255382 0.744618 0.428597 0.571403 0.792674 0.207326 0.414998 0.585002
8
1.0 0.0 1.0 0.0 0.0 1.0 0.0 1.0
8
1.0 0.0 1.0 0.0 0.0 1.0 0.0 1.0
8
0.0 1.0 1.0 0.0 0.0 1.0 1.0 0.0
8
0.147093 0.852907 0.510302 0.489698 0.0684871 0.931513 0.687154 0.312846
8
1.0 0.0 0.0 1.0 0.0 1.0 0.0 1.0
8
0.0 1.0 0.0 1.0 1.0 0.0 1.0 0.0
8
1.0 0.0 0.0 1.0 0.0 1.0 1.0 0.0
8
0.0 1.0 1.0 0.0 0.0 1.0 0.0 1.0
4
0.56496 0.43504 0.151563 0.848437
8
0.0 1.0 1.0 0.0 0.0 1.0 1.0 0.0
8
0.904212 0.0957877 0.558951 0.441049 0.936422 0.063578 0.101295 0.898705
8
0.0 1.0 1.0 0.0 0.0 1.0 1.0 0.0
8
1.0 0.0 1.0 0.0 1.0 0.0 0.0 1.0
8
0.0 1.0 0.0 1.0 0.0 1.0 1.0 0.0
8
0.0 1.0 0.0 1.0 1.0 0.0 0.0 1.0
8
1.0 0.0 0.0 1.0 1.0 0.0 1.0 0.0
8
1.0 0.0 0.0 1.0 0.0 1.0 1.0 0.0
8
0.0 1.0 0.0 1.0 1.0 0.0 1.0 0.0
8
0.0 1.0 0.0 1.0 0.0 1.0 1.0 0.0
8
0.0 1.0 0.0 1.0 1.0 0.0 0.0 1.0
8
0.0 1.0 1.0 0.0 1.0 0.0 1.0 0.0
8
1.0 0.0 1.0 0.0 1.0 0.0 0.0 1.0
8
1.0 0.0 1.0 0.0 0.0 1.0 1.0 0.0
4
1.0 0.0 0.0 1.0
8
1.0 0.0 0.0 1.0 1.0 0.0 0.0 1.0
8
1.0 0.0 0.0 1.0 0.0 1.0 0.0 1.0
8
0.0 1.0 1.0 0.0 1.0 0.0 1.0 0.0
8
0.0 1.0 0.0 1.0 0.0 1.0 1.0 0.0
8
1.0 0.0 1.0 0.0 0.0 1.0 0.0 1.0
8
0.243688 0.756312 0.268792 0.731208 0.93591 0.0640905 0.597306 0.402694
8
0.0 1.0 0.0 1.0 0.0 1.0 1.0 0.0
8
1.0 0.0 0.0 1.0 0.0 1.0 0.0 1.0
8
0.0 1.0 1.0 0.0 1.0 0.0 1.0 0.0
8
1.0 0.0 0.0 1.0 1.0 0.0 1.0 0.0
8
1.0 0.0 0.0 1.0 0.0 1.0 0.0 1.0
8
1.0 0.0 0.0 1.0 1.0 0.0 0.0 1.0
8
1.0 0.0 0.0 1.0 1.0 0.0 1.0 0.0
8
0.12204 0.87796 0.0381182 0.961882 0.402978 0.597022 0.137627 0.862373
4
0.0 1.0 1.0 0.0
8
0.0 1.0 1.0 0.0 0.0 1.0 0.0 1.0
8
1.0 0.0 1.0 0.0 1.0 0.0 0.0 1.0
8
0.0665226 0.933477 0.35982 0.64018 0.862608 0.137392 0.900899 0.0991009
8
0.0 1.0 1.0 0.0 0.0 1.0 0.0 1.0
8
0.0 1.0 1.0 0.0 1.0 0.0 0.0 1.0
8
1.0 0.0 0.0 1.0 0.0 1.0 1.0 0.0
8
1.0 0.0 0.0 1.0 1.0 0.0 1.0 0.0
8
0.0 1.0 0.0 1.0 1.0 0.0 0.0 1.0
8
1.0 0.0 1.0 0.0 0.0 1.0 0.0 1.0
8
0.0 1.0 0.0 1.0 0.0 1.0 1.0 0.0
8
1.0 0.0 1.0 0.0 0.0 1.0 0.0 1.0
8
0.294817 0.705183 0.356295 0.643705 0.535553 0.464447 0.566928 0.433072
8
0.0 1.0 1.0 0.0 1.0 0.0 1.0 0.0
8
1.0 0.0 1.0 0.0 0.0 1.0 0.0 1.0
4
1.0 0.0 0.0 1.0
8
1.0 0.0 1.0 0.0 0.0 1.0 1.0 0.0
8
0.0 1.0 0.0 1.0 1.0 0.0 1.0 0.0
8
0.0 1.0 0.0 1.0 1.0 0.0 1.0 0.0
8
1.0 0.0 0.0 1.0 1.0 0.0 1.0 0.0
8
0.831246 0.168754 0.82287 0.17713 0.846643 0.153357 0.231904 0.768096
8
1.0 0.0 0.0 1.0 0.0 1.0 1.0 0.0
8
0.722856 0.277144 0.168123 0.831877 0.208482 0.791518 0.741604 0.258396
8
1.0 0.0 0.0 1.0 1.0 0.0 0.0 1.0
8
0.0 1.0 0.0 1.0 1.0 0.0 0.0 1.0
8
1.0 0.0 1.0 0.0 1.0 0.0 0.0 1.0
8
0.0 1.0 1.0 0.0 1.0 0.0 1.0 0.0
8
0.0 1.0 0.0 1.0 0.0 1.0 1.0 0.0
8
0.0 1.0 1.0 0.0 0.0 1.0 0.0 1.0
8
1.0 0.0 0.0 1.0 0.0 1.0 1.0 0.0